43
1000
199	5
198	4
197	2
196	1
195	1
194	3
193	4
192	1
191	5
190	2
189	2
188	3
187	2
186	4
185	2
183	2
182	2
181	1
179	1
178	2
177	1
176	1
175	3
174	1
173	5
171	1
170	2
169	1
166	4
165	2
164	1
163	1
162	1
161	3
160	1
159	1
158	5
156	3
155	3
154	4
153	2
152	2
150	3
